; SWAP2 POP SWAP1 SLOAD SWAP1 PUSH cw_1 => PUSH cw_1 SWAP1 SLOAD SWAP3 POP
(set-option :produce-proofs true)
; 
(set-info :status unknown)
(declare-fun storage_t ((_ BitVec 256) (_ BitVec 256) (_ BitVec 256) (_ BitVec 256) (_ BitVec 256) Int (_ BitVec 256)) (_ BitVec 256))
(declare-fun w_1 () (_ BitVec 256))
(declare-fun storage_s ((_ BitVec 256) (_ BitVec 256) (_ BitVec 256) (_ BitVec 256) (_ BitVec 256) Int (_ BitVec 256)) (_ BitVec 256))
(declare-fun exc_halt_t (Int) Bool)
(declare-fun exc_halt_s (Int) Bool)
(declare-fun stack_t ((_ BitVec 256) (_ BitVec 256) (_ BitVec 256) (_ BitVec 256) (_ BitVec 256) Int (_ BitVec 6)) (_ BitVec 256))
(declare-fun stack_s ((_ BitVec 256) (_ BitVec 256) (_ BitVec 256) (_ BitVec 256) (_ BitVec 256) Int (_ BitVec 6)) (_ BitVec 256))
(declare-fun sc_t (Int) (_ BitVec 6))
(declare-fun sc_s (Int) (_ BitVec 6))
(declare-fun used_gas_t ((_ BitVec 256) (_ BitVec 256) (_ BitVec 256) (_ BitVec 256) (_ BitVec 256) Int) Int)
(declare-fun used_gas_s ((_ BitVec 256) (_ BitVec 256) (_ BitVec 256) (_ BitVec 256) (_ BitVec 256) Int) Int)
(assert
 (exists ((x_0 (_ BitVec 256)) (x_1 (_ BitVec 256)) (x_2 (_ BitVec 256)) (x_SLOAD_0 (_ BitVec 256)) )(let (($x8714 (forall ((w (_ BitVec 256)) )(let ((?x11506 (storage_t x_0 x_1 x_2 x_SLOAD_0 w_1 5 w)))
 (let ((?x638 (storage_s x_0 x_1 x_2 x_SLOAD_0 w_1 6 w)))
 (= ?x638 ?x11506))))
 ))
 (let (($x10311 (exc_halt_t 5)))
 (let (($x7121 (exc_halt_s 6)))
 (let (($x4790 (= $x7121 $x10311)))
 (let (($x10774 (forall ((n (_ BitVec 6)) )(let ((?x1054 (stack_t x_0 x_1 x_2 x_SLOAD_0 w_1 5 n)))
 (let ((?x5007 (stack_s x_0 x_1 x_2 x_SLOAD_0 w_1 6 n)))
 (let (($x2007 (= ?x5007 ?x1054)))
 (or (bvsle (sc_t 5) n) $x2007)))))
 ))
 (let ((?x10036 (sc_t 5)))
 (let ((?x9114 (sc_s 6)))
 (let (($x6242 (= ?x9114 ?x10036)))
 (let ((?x10111 (used_gas_t x_0 x_1 x_2 x_SLOAD_0 w_1 0)))
 (let ((?x9996 (used_gas_s x_0 x_1 x_2 x_SLOAD_0 w_1 0)))
 (let (($x1069 (= ?x9996 ?x10111)))
 (let (($x4487 (forall ((w (_ BitVec 256)) )(let ((?x6754 (storage_t x_0 x_1 x_2 x_SLOAD_0 w_1 0 w)))
 (let ((?x7811 (storage_s x_0 x_1 x_2 x_SLOAD_0 w_1 0 w)))
 (= ?x7811 ?x6754))))
 ))
 (let (($x56 (exc_halt_t 0)))
 (let (($x57 (exc_halt_s 0)))
 (let (($x58 (= $x57 $x56)))
 (let (($x9157 (forall ((n (_ BitVec 6)) )(let ((?x2914 (stack_t x_0 x_1 x_2 x_SLOAD_0 w_1 0 n)))
 (let ((?x11729 (stack_s x_0 x_1 x_2 x_SLOAD_0 w_1 0 n)))
 (let (($x9497 (= ?x11729 ?x2914)))
 (let ((?x63 (sc_t 0)))
 (let (($x5202 (bvsle ?x63 n)))
 (or $x5202 $x9497)))))))
 ))
 (let ((?x63 (sc_t 0)))
 (let ((?x72 (sc_s 0)))
 (let (($x73 (= ?x72 ?x63)))
 (let (($x1292 (= $x10311 (or (exc_halt_t 4) (not (bvsle (_ bv0 6) (bvadd (_ bv63 6) (sc_t 4))))))))
 (let (($x6115 (forall ((w (_ BitVec 256)) )(let ((?x7241 (storage_t x_0 x_1 x_2 x_SLOAD_0 w_1 4 w)))
 (let ((?x11506 (storage_t x_0 x_1 x_2 x_SLOAD_0 w_1 5 w)))
 (= ?x11506 ?x7241))))
 ))
 (let (($x8064 (forall ((n (_ BitVec 6)) )(let ((?x9601 (stack_t x_0 x_1 x_2 x_SLOAD_0 w_1 4 n)))
 (let ((?x1054 (stack_t x_0 x_1 x_2 x_SLOAD_0 w_1 5 n)))
 (or (= ?x1054 ?x9601) (bvsle (bvadd (_ bv63 6) (sc_t 4)) n)))))
 ))
 (let (($x4055 (= (used_gas_t x_0 x_1 x_2 x_SLOAD_0 w_1 5) (+ 2 (used_gas_t x_0 x_1 x_2 x_SLOAD_0 w_1 4)))))
 (let (($x7854 (exc_halt_t 4)))
 (let (($x8159 (= $x7854 (or (exc_halt_t 3) (not (bvsle (_ bv0 6) (bvadd (_ bv60 6) (sc_t 3))))))))
 (let (($x660 (forall ((w (_ BitVec 256)) )(let ((?x5773 (storage_t x_0 x_1 x_2 x_SLOAD_0 w_1 3 w)))
 (let ((?x7241 (storage_t x_0 x_1 x_2 x_SLOAD_0 w_1 4 w)))
 (= ?x7241 ?x5773))))
 ))
 (let (($x5313 (forall ((n (_ BitVec 6)) )(let ((?x10956 (stack_t x_0 x_1 x_2 x_SLOAD_0 w_1 3 n)))
 (let ((?x9601 (stack_t x_0 x_1 x_2 x_SLOAD_0 w_1 4 n)))
 (let ((?x10013 (sc_t 3)))
 (let ((?x10229 (bvadd (_ bv60 6) ?x10013)))
 (let (($x5971 (bvsle ?x10229 n)))
 (or $x5971 (= ?x9601 ?x10956))))))))
 ))
 (let ((?x10013 (sc_t 3)))
 (let ((?x7495 (sc_t 4)))
 (let (($x4539 (= ?x7495 ?x10013)))
 (let ((?x6466 (used_gas_t x_0 x_1 x_2 x_SLOAD_0 w_1 4)))
 (let (($x919 (= (stack_t x_0 x_1 x_2 x_SLOAD_0 w_1 4 (bvadd (_ bv62 6) ?x7495)) (stack_t x_0 x_1 x_2 x_SLOAD_0 w_1 3 (bvadd (_ bv62 6) ?x10013)))))
 (let (($x2278 (= (stack_t x_0 x_1 x_2 x_SLOAD_0 w_1 4 (bvadd (_ bv61 6) ?x7495)) (stack_t x_0 x_1 x_2 x_SLOAD_0 w_1 3 (bvadd (_ bv61 6) ?x10013)))))
 (let ((?x6860 (bvadd (_ bv63 6) ?x10013)))
 (let ((?x8334 (stack_t x_0 x_1 x_2 x_SLOAD_0 w_1 3 ?x6860)))
 (let (($x3162 (= (stack_t x_0 x_1 x_2 x_SLOAD_0 w_1 4 (bvadd (_ bv63 6) ?x7495)) (stack_t x_0 x_1 x_2 x_SLOAD_0 w_1 3 (bvadd (_ bv60 6) ?x10013)))))
 (let (($x9131 (exc_halt_t 3)))
 (let (($x7924 (= $x9131 (or (exc_halt_t 2) (not (bvsle (_ bv0 6) (bvadd (_ bv63 6) (sc_t 2))))))))
 (let (($x6948 (forall ((w (_ BitVec 256)) )(let ((?x2671 (storage_t x_0 x_1 x_2 x_SLOAD_0 w_1 2 w)))
 (let ((?x5773 (storage_t x_0 x_1 x_2 x_SLOAD_0 w_1 3 w)))
 (= ?x5773 ?x2671))))
 ))
 (let (($x1840 (forall ((n (_ BitVec 6)) )(let ((?x6888 (stack_t x_0 x_1 x_2 x_SLOAD_0 w_1 2 n)))
 (let ((?x10956 (stack_t x_0 x_1 x_2 x_SLOAD_0 w_1 3 n)))
 (let ((?x6198 (sc_t 2)))
 (let ((?x332 (bvadd (_ bv63 6) ?x6198)))
 (let (($x5079 (bvsle ?x332 n)))
 (or $x5079 (= ?x10956 ?x6888))))))))
 ))
 (let ((?x6198 (sc_t 2)))
 (let (($x6694 (= ?x10013 ?x6198)))
 (let ((?x9535 (used_gas_t x_0 x_1 x_2 x_SLOAD_0 w_1 3)))
 (let ((?x332 (bvadd (_ bv63 6) ?x6198)))
 (let ((?x10498 (stack_t x_0 x_1 x_2 x_SLOAD_0 w_1 2 ?x332)))
 (let (($x10349 (exc_halt_t 2)))
 (let (($x9757 (= $x10349 (or (exc_halt_t 1) (not (bvsle (_ bv0 6) (bvadd (_ bv62 6) (sc_t 1))))))))
 (let (($x6366 (forall ((w (_ BitVec 256)) )(let ((?x8797 (storage_t x_0 x_1 x_2 x_SLOAD_0 w_1 1 w)))
 (let ((?x2671 (storage_t x_0 x_1 x_2 x_SLOAD_0 w_1 2 w)))
 (= ?x2671 ?x8797))))
 ))
 (let (($x4114 (forall ((n (_ BitVec 6)) )(let ((?x4543 (stack_t x_0 x_1 x_2 x_SLOAD_0 w_1 1 n)))
 (let ((?x6888 (stack_t x_0 x_1 x_2 x_SLOAD_0 w_1 2 n)))
 (let ((?x6855 (sc_t 1)))
 (let ((?x9525 (bvadd (_ bv62 6) ?x6855)))
 (let (($x4811 (bvsle ?x9525 n)))
 (or $x4811 (= ?x6888 ?x4543))))))))
 ))
 (let ((?x6855 (sc_t 1)))
 (let (($x8216 (= ?x6198 ?x6855)))
 (let ((?x7196 (used_gas_t x_0 x_1 x_2 x_SLOAD_0 w_1 2)))
 (let (($x5306 (= (stack_t x_0 x_1 x_2 x_SLOAD_0 w_1 2 (bvadd (_ bv62 6) ?x6198)) (stack_t x_0 x_1 x_2 x_SLOAD_0 w_1 1 (bvadd (_ bv63 6) ?x6855)))))
 (let (($x3194 (exc_halt_t 1)))
 (let (($x6965 (= $x3194 (or $x56 (not (= ((_ extract 6 6) (bvadd (_ bv1 7) (concat (_ bv0 1) ?x63))) (_ bv0 1)))))))
 (let (($x3206 (forall ((w (_ BitVec 256)) )(let ((?x6754 (storage_t x_0 x_1 x_2 x_SLOAD_0 w_1 0 w)))
 (let ((?x8797 (storage_t x_0 x_1 x_2 x_SLOAD_0 w_1 1 w)))
 (= ?x8797 ?x6754))))
 ))
 (let (($x5701 (forall ((n (_ BitVec 6)) )(let ((?x63 (sc_t 0)))
 (let (($x5202 (bvsle ?x63 n)))
 (let ((?x2914 (stack_t x_0 x_1 x_2 x_SLOAD_0 w_1 0 n)))
 (let ((?x4543 (stack_t x_0 x_1 x_2 x_SLOAD_0 w_1 1 n)))
 (or (= ?x4543 ?x2914) $x5202))))))
 ))
 (let (($x3505 (= ?x6855 (bvadd (_ bv1 6) ?x63))))
 (let (($x1862 (exc_halt_s 5)))
 (let (($x5072 (or $x1862 (not (= ((_ extract 6 6) (bvadd (_ bv1 7) (concat (_ bv0 1) (sc_s 5)))) (_ bv0 1))))))
 (let (($x3459 (forall ((w (_ BitVec 256)) )(let ((?x7833 (storage_s x_0 x_1 x_2 x_SLOAD_0 w_1 5 w)))
 (let ((?x638 (storage_s x_0 x_1 x_2 x_SLOAD_0 w_1 6 w)))
 (= ?x638 ?x7833))))
 ))
 (let (($x8695 (forall ((n (_ BitVec 6)) )(let ((?x6469 (stack_s x_0 x_1 x_2 x_SLOAD_0 w_1 5 n)))
 (let ((?x5007 (stack_s x_0 x_1 x_2 x_SLOAD_0 w_1 6 n)))
 (or (= ?x5007 ?x6469) (bvsle (sc_s 5) n)))))
 ))
 (let (($x7963 (= (used_gas_s x_0 x_1 x_2 x_SLOAD_0 w_1 6) (+ 3 (used_gas_s x_0 x_1 x_2 x_SLOAD_0 w_1 5)))))
 (let (($x10695 (= $x1862 (or (exc_halt_s 4) (not (bvsle (_ bv0 6) (bvadd (_ bv62 6) (sc_s 4))))))))
 (let (($x3047 (forall ((w (_ BitVec 256)) )(let ((?x5099 (storage_s x_0 x_1 x_2 x_SLOAD_0 w_1 4 w)))
 (let ((?x7833 (storage_s x_0 x_1 x_2 x_SLOAD_0 w_1 5 w)))
 (= ?x7833 ?x5099))))
 ))
 (let (($x8985 (forall ((n (_ BitVec 6)) )(let ((?x471 (stack_s x_0 x_1 x_2 x_SLOAD_0 w_1 4 n)))
 (let ((?x6469 (stack_s x_0 x_1 x_2 x_SLOAD_0 w_1 5 n)))
 (let ((?x9433 (sc_s 4)))
 (let ((?x3745 (bvadd (_ bv62 6) ?x9433)))
 (let (($x7729 (bvsle ?x3745 n)))
 (or $x7729 (= ?x6469 ?x471))))))))
 ))
 (let ((?x9433 (sc_s 4)))
 (let ((?x4319 (sc_s 5)))
 (let (($x5582 (= ?x4319 ?x9433)))
 (let ((?x10436 (used_gas_s x_0 x_1 x_2 x_SLOAD_0 w_1 5)))
 (let ((?x11350 (bvadd (_ bv63 6) ?x9433)))
 (let ((?x7280 (stack_s x_0 x_1 x_2 x_SLOAD_0 w_1 4 ?x11350)))
 (let (($x6206 (= (stack_s x_0 x_1 x_2 x_SLOAD_0 w_1 5 (bvadd (_ bv63 6) ?x4319)) (stack_s x_0 x_1 x_2 x_SLOAD_0 w_1 4 (bvadd (_ bv62 6) ?x9433)))))
 (let (($x9175 (exc_halt_s 4)))
 (let (($x7082 (= $x9175 (or (exc_halt_s 3) (not (bvsle (_ bv0 6) (bvadd (_ bv63 6) (sc_s 3))))))))
 (let (($x2378 (forall ((w (_ BitVec 256)) )(let ((?x8769 (storage_s x_0 x_1 x_2 x_SLOAD_0 w_1 3 w)))
 (let ((?x5099 (storage_s x_0 x_1 x_2 x_SLOAD_0 w_1 4 w)))
 (= ?x5099 ?x8769))))
 ))
 (let (($x5572 (forall ((n (_ BitVec 6)) )(let ((?x3851 (sc_s 3)))
 (let ((?x6454 (bvadd (_ bv63 6) ?x3851)))
 (let (($x7852 (bvsle ?x6454 n)))
 (let ((?x10432 (stack_s x_0 x_1 x_2 x_SLOAD_0 w_1 3 n)))
 (let ((?x471 (stack_s x_0 x_1 x_2 x_SLOAD_0 w_1 4 n)))
 (or (= ?x471 ?x10432) $x7852)))))))
 ))
 (let ((?x3851 (sc_s 3)))
 (let (($x10759 (= ?x9433 ?x3851)))
 (let ((?x8575 (used_gas_s x_0 x_1 x_2 x_SLOAD_0 w_1 4)))
 (let ((?x6454 (bvadd (_ bv63 6) ?x3851)))
 (let ((?x7165 (stack_s x_0 x_1 x_2 x_SLOAD_0 w_1 3 ?x6454)))
 (let (($x8103 (exc_halt_s 3)))
 (let (($x12003 (= $x8103 (or (exc_halt_s 2) (not (bvsle (_ bv0 6) (bvadd (_ bv62 6) (sc_s 2))))))))
 (let (($x9903 (forall ((w (_ BitVec 256)) )(let ((?x1744 (storage_s x_0 x_1 x_2 x_SLOAD_0 w_1 2 w)))
 (let ((?x8769 (storage_s x_0 x_1 x_2 x_SLOAD_0 w_1 3 w)))
 (= ?x8769 ?x1744))))
 ))
 (let (($x9767 (forall ((n (_ BitVec 6)) )(let ((?x5673 (stack_s x_0 x_1 x_2 x_SLOAD_0 w_1 2 n)))
 (let ((?x10432 (stack_s x_0 x_1 x_2 x_SLOAD_0 w_1 3 n)))
 (let ((?x2272 (sc_s 2)))
 (let ((?x10094 (bvadd (_ bv62 6) ?x2272)))
 (let (($x3308 (bvsle ?x10094 n)))
 (or $x3308 (= ?x10432 ?x5673))))))))
 ))
 (let ((?x2272 (sc_s 2)))
 (let (($x9637 (= ?x3851 ?x2272)))
 (let ((?x9520 (used_gas_s x_0 x_1 x_2 x_SLOAD_0 w_1 3)))
 (let (($x10987 (= (stack_s x_0 x_1 x_2 x_SLOAD_0 w_1 3 (bvadd (_ bv62 6) ?x3851)) (stack_s x_0 x_1 x_2 x_SLOAD_0 w_1 2 (bvadd (_ bv63 6) ?x2272)))))
 (let (($x10052 (exc_halt_s 2)))
 (let (($x979 (= $x10052 (or (exc_halt_s 1) (not (bvsle (_ bv0 6) (bvadd (_ bv63 6) (sc_s 1))))))))
 (let (($x2954 (forall ((w (_ BitVec 256)) )(let ((?x9764 (storage_s x_0 x_1 x_2 x_SLOAD_0 w_1 1 w)))
 (let ((?x1744 (storage_s x_0 x_1 x_2 x_SLOAD_0 w_1 2 w)))
 (= ?x1744 ?x9764))))
 ))
 (let (($x9285 (forall ((n (_ BitVec 6)) )(let ((?x9711 (stack_s x_0 x_1 x_2 x_SLOAD_0 w_1 1 n)))
 (let ((?x5673 (stack_s x_0 x_1 x_2 x_SLOAD_0 w_1 2 n)))
 (or (bvsle (bvadd (_ bv63 6) (sc_s 1)) n) (= ?x5673 ?x9711)))))
 ))
 (let ((?x9949 (used_gas_s x_0 x_1 x_2 x_SLOAD_0 w_1 2)))
 (let (($x9937 (forall ((w (_ BitVec 256)) )(let ((?x7811 (storage_s x_0 x_1 x_2 x_SLOAD_0 w_1 0 w)))
 (let ((?x9764 (storage_s x_0 x_1 x_2 x_SLOAD_0 w_1 1 w)))
 (= ?x9764 ?x7811))))
 ))
 (let (($x5867 (forall ((n (_ BitVec 6)) )(let ((?x11729 (stack_s x_0 x_1 x_2 x_SLOAD_0 w_1 0 n)))
 (let ((?x9711 (stack_s x_0 x_1 x_2 x_SLOAD_0 w_1 1 n)))
 (or (bvsle (bvadd (_ bv61 6) (sc_s 0)) n) (= ?x9711 ?x11729)))))
 ))
 (let ((?x154 (sc_s 1)))
 (let (($x6924 (= ?x154 ?x72)))
 (let (($x9172 (= (stack_s x_0 x_1 x_2 x_SLOAD_0 w_1 1 (bvadd (_ bv62 6) ?x154)) (stack_s x_0 x_1 x_2 x_SLOAD_0 w_1 0 (bvadd (_ bv62 6) ?x72)))))
 (let (($x10786 (= (stack_s x_0 x_1 x_2 x_SLOAD_0 w_1 1 (bvadd (_ bv61 6) ?x154)) (stack_s x_0 x_1 x_2 x_SLOAD_0 w_1 0 (bvadd (_ bv63 6) ?x72)))))
 (let (($x4168 (= (stack_s x_0 x_1 x_2 x_SLOAD_0 w_1 1 (bvadd (_ bv63 6) ?x154)) (stack_s x_0 x_1 x_2 x_SLOAD_0 w_1 0 (bvadd (_ bv61 6) ?x72)))))
 (let (($x7460 (forall ((w (_ BitVec 256)) )(let (($x5163 (= w (stack_s x_0 x_1 x_2 x_SLOAD_0 w_1 3 (bvadd (_ bv63 6) (sc_s 3))))))
 (let ((?x7811 (storage_s x_0 x_1 x_2 x_SLOAD_0 w_1 0 w)))
 (= ?x7811 (ite $x5163 x_SLOAD_0 (_ bv0 256))))))
 ))
 (let (($x1076 (= ?x9996 0)))
 (let (($x3623 (not $x57)))
 (let (($x11984 (= (stack_s x_0 x_1 x_2 x_SLOAD_0 w_1 0 (_ bv2 6)) x_2)))
 (let (($x2394 (= (stack_s x_0 x_1 x_2 x_SLOAD_0 w_1 0 (_ bv1 6)) x_1)))
 (let (($x6165 (= (stack_s x_0 x_1 x_2 x_SLOAD_0 w_1 0 (_ bv0 6)) x_0)))
 (let (($x9108 (= ?x72 (_ bv3 6))))
 (and $x9108 $x6165 $x2394 $x11984 $x3623 $x1076 $x7460 $x4168 $x10786 $x9172 (= (used_gas_s x_0 x_1 x_2 x_SLOAD_0 w_1 1) (+ 3 ?x9996)) $x6924 $x5867 $x9937 (= (exc_halt_s 1) (or $x57 (not (bvsle (_ bv0 6) (bvadd (_ bv61 6) ?x72))))) (= ?x9949 (+ 2 (used_gas_s x_0 x_1 x_2 x_SLOAD_0 w_1 1))) (= ?x2272 (bvadd (_ bv63 6) ?x154)) $x9285 $x2954 $x979 (= ?x7165 (stack_s x_0 x_1 x_2 x_SLOAD_0 w_1 2 (bvadd (_ bv62 6) ?x2272))) $x10987 (= ?x9520 (+ 3 ?x9949)) $x9637 $x9767 $x9903 $x12003 (= ?x7280 (storage_s x_0 x_1 x_2 x_SLOAD_0 w_1 3 ?x7165)) (= ?x8575 (+ 200 ?x9520)) $x10759 $x5572 $x2378 $x7082 $x6206 (= (stack_s x_0 x_1 x_2 x_SLOAD_0 w_1 5 (bvadd (_ bv62 6) ?x4319)) ?x7280) (= ?x10436 (+ 3 ?x8575)) $x5582 $x8985 $x3047 $x10695 (= (stack_s x_0 x_1 x_2 x_SLOAD_0 w_1 6 ?x4319) w_1) $x7963 (= ?x9114 (bvadd (_ bv1 6) ?x4319)) $x8695 $x3459 (= $x7121 $x5072) (= (stack_t x_0 x_1 x_2 x_SLOAD_0 w_1 1 ?x63) w_1) (= (used_gas_t x_0 x_1 x_2 x_SLOAD_0 w_1 1) (+ 3 ?x10111)) $x3505 $x5701 $x3206 $x6965 (= ?x10498 (stack_t x_0 x_1 x_2 x_SLOAD_0 w_1 1 (bvadd (_ bv62 6) ?x6855))) $x5306 (= ?x7196 (+ 3 (used_gas_t x_0 x_1 x_2 x_SLOAD_0 w_1 1))) $x8216 $x4114 $x6366 $x9757 (= ?x8334 (storage_t x_0 x_1 x_2 x_SLOAD_0 w_1 2 ?x10498)) (= ?x9535 (+ 200 ?x7196)) $x6694 $x1840 $x6948 $x7924 $x3162 (= (stack_t x_0 x_1 x_2 x_SLOAD_0 w_1 4 (bvadd (_ bv60 6) ?x7495)) ?x8334) $x2278 $x919 (= ?x6466 (+ 3 ?x9535)) $x4539 $x5313 $x660 $x8159 $x4055 (= ?x10036 (bvadd (_ bv63 6) ?x7495)) $x8064 $x6115 $x1292 $x73 $x9157 $x58 $x4487 $x1069 (not (and $x6242 $x10774 $x4790 $x8714)))))))))))))))))))))))))))))))))))))))))))))))))))))))))))))))))))))))))))))))))))))))))))))))))))))))))))))))))
 )
(check-sat)
(get-proof)
